proyfinal/src/viki/013/andrea/andrea-localstore/experimentInOfficeAgust.take6/worker_5/126d1dbb-0d34-449a-b218-77adc22d7c01.als.cnf.out
Reading from standard input... Use '--help' for help.
============================[ Problem Statistics ]=============================
|                                                                             |
|  Number of variables:         87638                                         |
|  Number of clauses:          161767                                         |
|  Parse time:                   0.04 s                                       |
|                                                                             |
============================[ Search Statistics ]==============================
| Conflicts |          ORIGINAL         |          LEARNT          | Progress |
|           |    Vars  Clauses Literals |    Limit  Clauses Lit/Cl |          |
===============================================================================
|       100 |   63793   110209   275626 |    40409      100     10 | 27.209 % |
|       250 |   63793   110209   275626 |    44450      250     21 | 27.209 % |
|       475 |   63793   110209   275626 |    48896      475     42 | 27.209 % |
|       812 |   63793   110209   275626 |    53785      812     53 | 27.209 % |
|      1318 |   63793   110209   275626 |    59164     1318     65 | 27.209 % |
|      2077 |   63793   110209   275626 |    65080     2077     75 | 27.209 % |
|      3216 |   63793   110209   275626 |    71588     3216     78 | 27.209 % |
|      4924 |   63792   110206   275620 |    78747     4922     82 | 27.210 % |
|      7486 |   47724    62824   158824 |    86622     7347     71 | 45.544 % |
===============================================================================
restarts              : 45
conflicts             : 10337          (6745 /sec)
decisions             : 35215          (0.00 % random) (22979 /sec)
propagations          : 16181028       (10558569 /sec)
conflict literals     : 633091         (50.18 % deleted)
Memory used           : 28.60 MB
CPU time              : 1.5325 s

UNSATISFIABLE
